Minimize
obj1:+5 x(1) -14 x(2) -2 x(3) +7 x(4) -9 x(5) +5 x(6) +18 x(7) +3 x(8) +8 x(9) +20 x(10) +16 x(11) +6 x(12) +20 x(13) -14 x(14) +0 x(15) +5 x(16) +12 x(17) -3 x(18) -18 x(19) +1 x(20) -15 x(21) -5 x(22) +8 x(23) -15 x(24) +12 x(25) -18 x(26) +13 x(27) +15 x(28) -12 x(29) +4 x(30) +20 x(31) -19 x(32) -15 x(33) -11 x(34) +3 x(35) +7 x(36) +9 x(37) +0 x(38) +6 x(39) -19 x(40)
Subject To
c1:+7 x(1) +8 x(2) +2 x(3) +12 x(4) +13 x(5) +8 x(6) +1 x(7) +15 x(8) +1 x(9) +17 x(10) +4 x(11) +20 x(12) +10 x(13) +13 x(14) +19 x(15) +2 x(16) +20 x(17) +9 x(18) +8 x(19) +9 x(20) +17 x(21) +12 x(22) +17 x(23) +12 x(24) +20 x(25) +20 x(26) +8 x(27) +16 x(28) +17 x(29) +20 x(30) +10 x(31) +1 x(32) +16 x(33) +15 x(34) +4 x(35) +12 x(36) +18 x(37) +19 x(38) +16 x(39) +2 x(40) <= 184
c2:+15 x(1) +8 x(2) +2 x(3) +13 x(4) +2 x(5) +2 x(6) +17 x(7) +12 x(8) +19 x(9) +5 x(10) +3 x(11) +19 x(12) +14 x(13) +19 x(14) +19 x(15) +18 x(16) +3 x(17) +20 x(18) +12 x(19) +4 x(20) +9 x(21) +17 x(22) +11 x(23) +18 x(24) +8 x(25) +19 x(26) +19 x(27) +11 x(28) +8 x(29) +7 x(30) +19 x(31) +9 x(32) +6 x(33) +12 x(34) +10 x(35) +8 x(36) +15 x(37) +8 x(38) +17 x(39) +14 x(40) <= 173
c3:+10 x(1) +6 x(2) +20 x(3) +17 x(4) +11 x(5) +15 x(6) +14 x(7) +11 x(8) +4 x(9) +13 x(10) +13 x(11) +5 x(12) +1 x(13) +9 x(14) +3 x(15) +6 x(16) +5 x(17) +16 x(18) +19 x(19) +1 x(20) +9 x(21) +7 x(22) +8 x(23) +4 x(24) +18 x(25) +12 x(26) +9 x(27) +17 x(28) +8 x(29) +4 x(30) +3 x(31) +9 x(32) +14 x(33) +20 x(34) +19 x(35) +3 x(36) +5 x(37) +15 x(38) +9 x(39) +3 x(40) <= 178
c4:+9 x(1) +19 x(2) +11 x(3) +12 x(4) +18 x(5) +15 x(6) +9 x(7) +12 x(8) +13 x(9) +6 x(10) +9 x(11) +2 x(12) +4 x(13) +7 x(14) +18 x(15) +19 x(16) +4 x(17) +8 x(18) +19 x(19) +3 x(20) +11 x(21) +18 x(22) +13 x(23) +5 x(24) +12 x(25) +12 x(26) +19 x(27) +1 x(28) +6 x(29) +15 x(30) +14 x(31) +16 x(32) +3 x(33) +7 x(34) +15 x(35) +3 x(36) +10 x(37) +14 x(38) +9 x(39) +11 x(40) <= 177
c5:+6 x(1) +14 x(2) +16 x(3) +7 x(4) +5 x(5) +15 x(6) +12 x(7) +1 x(8) +11 x(9) +3 x(10) +6 x(11) +9 x(12) +19 x(13) +18 x(14) +1 x(15) +2 x(16) +17 x(17) +12 x(18) +17 x(19) +19 x(20) +9 x(21) +5 x(22) +13 x(23) +3 x(24) +17 x(25) +3 x(26) +9 x(27) +15 x(28) +6 x(29) +6 x(30) +4 x(31) +20 x(32) +19 x(33) +10 x(34) +14 x(35) +20 x(36) +19 x(37) +3 x(38) +16 x(39) +1 x(40) <= 105
c6:+12 x(1) +9 x(2) +7 x(3) +5 x(4) +17 x(5) +14 x(6) +16 x(7) +8 x(8) +15 x(9) +9 x(10) +5 x(11) +3 x(12) +12 x(13) +1 x(14) +15 x(15) +13 x(16) +2 x(17) +5 x(18) +4 x(19) +13 x(20) +1 x(21) +3 x(22) +11 x(23) +17 x(24) +10 x(25) +8 x(26) +5 x(27) +3 x(28) +20 x(29) +7 x(30) +13 x(31) +6 x(32) +9 x(33) +6 x(34) +2 x(35) +11 x(36) +13 x(37) +5 x(38) +5 x(39) +9 x(40) <= 161
c7:+17 x(1) +13 x(2) +3 x(3) +13 x(4) +5 x(5) +6 x(6) +13 x(7) +11 x(8) +8 x(9) +2 x(10) +4 x(11) +16 x(12) +1 x(13) +3 x(14) +18 x(15) +12 x(16) +10 x(17) +6 x(18) +8 x(19) +13 x(20) +14 x(21) +2 x(22) +15 x(23) +15 x(24) +2 x(25) +19 x(26) +18 x(27) +1 x(28) +1 x(29) +1 x(30) +13 x(31) +18 x(32) +8 x(33) +2 x(34) +7 x(35) +2 x(36) +6 x(37) +19 x(38) +18 x(39) +5 x(40) <= 190
c8:+2 x(1) +13 x(2) +10 x(3) +6 x(4) +10 x(5) +1 x(6) +16 x(7) +2 x(8) +16 x(9) +3 x(10) +18 x(11) +7 x(12) +6 x(13) +20 x(14) +8 x(15) +14 x(16) +12 x(17) +15 x(18) +19 x(19) +1 x(20) +6 x(21) +4 x(22) +8 x(23) +18 x(24) +10 x(25) +5 x(26) +10 x(27) +4 x(28) +14 x(29) +12 x(30) +9 x(31) +1 x(32) +4 x(33) +3 x(34) +19 x(35) +6 x(36) +13 x(37) +18 x(38) +14 x(39) +14 x(40) <= 152
c9:+3 x(1) +20 x(2) +9 x(3) +20 x(4) +6 x(5) +8 x(6) +2 x(7) +6 x(8) +11 x(9) +11 x(10) +13 x(11) +9 x(12) +1 x(13) +15 x(14) +5 x(15) +7 x(16) +8 x(17) +7 x(18) +11 x(19) +5 x(20) +12 x(21) +17 x(22) +3 x(23) +4 x(24) +7 x(25) +4 x(26) +9 x(27) +10 x(28) +11 x(29) +9 x(30) +14 x(31) +7 x(32) +10 x(33) +2 x(34) +18 x(35) +5 x(36) +14 x(37) +8 x(38) +20 x(39) +11 x(40) <= 151
c10:+10 x(1) +16 x(2) +19 x(3) +4 x(4) +7 x(5) +18 x(6) +8 x(7) +12 x(8) +16 x(9) +5 x(10) +13 x(11) +4 x(12) +16 x(13) +7 x(14) +3 x(15) +1 x(16) +14 x(17) +9 x(18) +10 x(19) +2 x(20) +8 x(21) +20 x(22) +8 x(23) +9 x(24) +19 x(25) +7 x(26) +12 x(27) +1 x(28) +3 x(29) +4 x(30) +9 x(31) +15 x(32) +10 x(33) +20 x(34) +18 x(35) +7 x(36) +9 x(37) +6 x(38) +4 x(39) +13 x(40) <= 125
c11:+18 x(1) +15 x(2) +4 x(3) +16 x(4) +19 x(5) +15 x(6) +9 x(7) +1 x(8) +8 x(9) +1 x(10) +14 x(11) +15 x(12) +15 x(13) +17 x(14) +17 x(15) +6 x(16) +18 x(17) +15 x(18) +6 x(19) +4 x(20) +11 x(21) +4 x(22) +17 x(23) +13 x(24) +18 x(25) +13 x(26) +5 x(27) +18 x(28) +10 x(29) +15 x(30) +18 x(31) +10 x(32) +2 x(33) +12 x(34) +12 x(35) +19 x(36) +4 x(37) +13 x(38) +5 x(39) +5 x(40) <= 198
c12:+7 x(1) +18 x(2) +5 x(3) +19 x(4) +1 x(5) +6 x(6) +14 x(7) +1 x(8) +19 x(9) +20 x(10) +4 x(11) +5 x(12) +11 x(13) +17 x(14) +14 x(15) +19 x(16) +19 x(17) +8 x(18) +13 x(19) +2 x(20) +16 x(21) +16 x(22) +18 x(23) +12 x(24) +14 x(25) +9 x(26) +6 x(27) +10 x(28) +15 x(29) +11 x(30) +15 x(31) +11 x(32) +18 x(33) +16 x(34) +4 x(35) +11 x(36) +7 x(37) +13 x(38) +7 x(39) +3 x(40) <= 158
c13:+6 x(1) +1 x(2) +4 x(3) +10 x(4) +15 x(5) +4 x(6) +13 x(7) +8 x(8) +19 x(9) +15 x(10) +13 x(11) +16 x(12) +12 x(13) +19 x(14) +16 x(15) +16 x(16) +20 x(17) +9 x(18) +4 x(19) +3 x(20) +12 x(21) +1 x(22) +7 x(23) +6 x(24) +5 x(25) +9 x(26) +5 x(27) +3 x(28) +20 x(29) +6 x(30) +9 x(31) +5 x(32) +19 x(33) +18 x(34) +4 x(35) +4 x(36) +14 x(37) +1 x(38) +16 x(39) +1 x(40) <= 197
c14:+2 x(1) +12 x(2) +20 x(3) +13 x(4) +8 x(5) +4 x(6) +18 x(7) +4 x(8) +12 x(9) +20 x(10) +18 x(11) +5 x(12) +5 x(13) +13 x(14) +8 x(15) +7 x(16) +19 x(17) +1 x(18) +19 x(19) +2 x(20) +7 x(21) +3 x(22) +1 x(23) +16 x(24) +5 x(25) +6 x(26) +12 x(27) +5 x(28) +11 x(29) +8 x(30) +13 x(31) +3 x(32) +16 x(33) +17 x(34) +15 x(35) +3 x(36) +13 x(37) +17 x(38) +8 x(39) +19 x(40) <= 104
c15:+2 x(1) +20 x(2) +15 x(3) +9 x(4) +12 x(5) +2 x(6) +13 x(7) +7 x(8) +11 x(9) +20 x(10) +4 x(11) +13 x(12) +9 x(13) +13 x(14) +4 x(15) +15 x(16) +1 x(17) +15 x(18) +15 x(19) +6 x(20) +10 x(21) +4 x(22) +1 x(23) +8 x(24) +11 x(25) +19 x(26) +17 x(27) +2 x(28) +19 x(29) +5 x(30) +13 x(31) +10 x(32) +10 x(33) +19 x(34) +19 x(35) +2 x(36) +5 x(37) +11 x(38) +13 x(39) +14 x(40) <= 119
c16:+12 x(1) +11 x(2) +5 x(3) +20 x(4) +7 x(5) +9 x(6) +13 x(7) +6 x(8) +4 x(9) +10 x(10) +13 x(11) +7 x(12) +11 x(13) +3 x(14) +1 x(15) +12 x(16) +1 x(17) +13 x(18) +17 x(19) +1 x(20) +19 x(21) +19 x(22) +17 x(23) +20 x(24) +8 x(25) +14 x(26) +18 x(27) +5 x(28) +20 x(29) +12 x(30) +18 x(31) +18 x(32) +16 x(33) +1 x(34) +14 x(35) +18 x(36) +1 x(37) +19 x(38) +8 x(39) +12 x(40) <= 152
c17:+17 x(1) +2 x(2) +14 x(3) +14 x(4) +18 x(5) +6 x(6) +18 x(7) +7 x(8) +13 x(9) +20 x(10) +18 x(11) +15 x(12) +17 x(13) +19 x(14) +2 x(15) +1 x(16) +18 x(17) +3 x(18) +10 x(19) +15 x(20) +18 x(21) +11 x(22) +19 x(23) +5 x(24) +16 x(25) +3 x(26) +13 x(27) +10 x(28) +10 x(29) +2 x(30) +20 x(31) +13 x(32) +18 x(33) +3 x(34) +11 x(35) +20 x(36) +11 x(37) +3 x(38) +12 x(39) +6 x(40) <= 164
c18:+7 x(1) +12 x(2) +5 x(3) +16 x(4) +18 x(5) +5 x(6) +16 x(7) +12 x(8) +15 x(9) +18 x(10) +6 x(11) +3 x(12) +14 x(13) +13 x(14) +7 x(15) +9 x(16) +9 x(17) +5 x(18) +20 x(19) +19 x(20) +18 x(21) +1 x(22) +16 x(23) +16 x(24) +8 x(25) +2 x(26) +20 x(27) +10 x(28) +8 x(29) +13 x(30) +15 x(31) +9 x(32) +14 x(33) +15 x(34) +12 x(35) +19 x(36) +4 x(37) +19 x(38) +8 x(39) +1 x(40) <= 134
c19:+7 x(1) +5 x(2) +9 x(3) +9 x(4) +11 x(5) +3 x(6) +16 x(7) +11 x(8) +18 x(9) +7 x(10) +12 x(11) +4 x(12) +10 x(13) +6 x(14) +7 x(15) +1 x(16) +9 x(17) +7 x(18) +17 x(19) +5 x(20) +20 x(21) +18 x(22) +20 x(23) +17 x(24) +6 x(25) +1 x(26) +20 x(27) +8 x(28) +2 x(29) +1 x(30) +11 x(31) +3 x(32) +2 x(33) +18 x(34) +5 x(35) +9 x(36) +11 x(37) +19 x(38) +14 x(39) +18 x(40) <= 165
c20:+1 x(1) +9 x(2) +19 x(3) +3 x(4) +1 x(5) +10 x(6) +3 x(7) +16 x(8) +10 x(9) +20 x(10) +10 x(11) +4 x(12) +18 x(13) +20 x(14) +11 x(15) +16 x(16) +7 x(17) +1 x(18) +3 x(19) +13 x(20) +16 x(21) +20 x(22) +10 x(23) +10 x(24) +7 x(25) +19 x(26) +14 x(27) +9 x(28) +17 x(29) +18 x(30) +1 x(31) +3 x(32) +3 x(33) +8 x(34) +17 x(35) +19 x(36) +18 x(37) +2 x(38) +1 x(39) +12 x(40) <= 135
c21:+8 x(1) +2 x(2) +12 x(3) +10 x(4) +11 x(5) +15 x(6) +5 x(7) +8 x(8) +16 x(9) +3 x(10) +17 x(11) +8 x(12) +10 x(13) +1 x(14) +8 x(15) +20 x(16) +19 x(17) +5 x(18) +19 x(19) +9 x(20) +1 x(21) +10 x(22) +12 x(23) +14 x(24) +19 x(25) +8 x(26) +16 x(27) +7 x(28) +9 x(29) +7 x(30) +3 x(31) +20 x(32) +9 x(33) +5 x(34) +16 x(35) +10 x(36) +13 x(37) +9 x(38) +17 x(39) +1 x(40) <= 185
c22:+18 x(1) +3 x(2) +3 x(3) +17 x(4) +17 x(5) +8 x(6) +3 x(7) +16 x(8) +4 x(9) +3 x(10) +2 x(11) +9 x(12) +6 x(13) +1 x(14) +19 x(15) +14 x(16) +15 x(17) +2 x(18) +14 x(19) +4 x(20) +20 x(21) +9 x(22) +14 x(23) +16 x(24) +8 x(25) +9 x(26) +7 x(27) +12 x(28) +16 x(29) +3 x(30) +18 x(31) +20 x(32) +16 x(33) +12 x(34) +12 x(35) +10 x(36) +6 x(37) +7 x(38) +7 x(39) +19 x(40) <= 154
c23:+1 x(1) +17 x(2) +13 x(3) +14 x(4) +12 x(5) +4 x(6) +17 x(7) +14 x(8) +1 x(9) +1 x(10) +15 x(11) +5 x(12) +15 x(13) +2 x(14) +4 x(15) +16 x(16) +19 x(17) +1 x(18) +7 x(19) +4 x(20) +10 x(21) +13 x(22) +20 x(23) +5 x(24) +10 x(25) +12 x(26) +16 x(27) +20 x(28) +12 x(29) +12 x(30) +19 x(31) +9 x(32) +12 x(33) +1 x(34) +9 x(35) +4 x(36) +18 x(37) +17 x(38) +15 x(39) +1 x(40) <= 167
c24:+4 x(1) +6 x(2) +4 x(3) +9 x(4) +5 x(5) +3 x(6) +8 x(7) +12 x(8) +3 x(9) +7 x(10) +12 x(11) +14 x(12) +20 x(13) +11 x(14) +16 x(15) +12 x(16) +11 x(17) +13 x(18) +18 x(19) +4 x(20) +11 x(21) +5 x(22) +19 x(23) +16 x(24) +5 x(25) +4 x(26) +1 x(27) +15 x(28) +10 x(29) +13 x(30) +14 x(31) +16 x(32) +10 x(33) +1 x(34) +11 x(35) +2 x(36) +4 x(37) +19 x(38) +20 x(39) +13 x(40) <= 125
c25:+17 x(1) +10 x(2) +2 x(3) +10 x(4) +7 x(5) +19 x(6) +10 x(7) +18 x(8) +18 x(9) +8 x(10) +9 x(11) +20 x(12) +8 x(13) +18 x(14) +4 x(15) +6 x(16) +1 x(17) +17 x(18) +19 x(19) +19 x(20) +2 x(21) +15 x(22) +1 x(23) +19 x(24) +11 x(25) +1 x(26) +8 x(27) +8 x(28) +6 x(29) +16 x(30) +10 x(31) +12 x(32) +1 x(33) +19 x(34) +8 x(35) +13 x(36) +6 x(37) +15 x(38) +11 x(39) +16 x(40) <= 112
c26:+1 x(1) +11 x(2) +5 x(3) +4 x(4) +2 x(5) +8 x(6) +2 x(7) +9 x(8) +16 x(9) +3 x(10) +16 x(11) +9 x(12) +5 x(13) +9 x(14) +17 x(15) +15 x(16) +17 x(17) +8 x(18) +14 x(19) +10 x(20) +16 x(21) +20 x(22) +12 x(23) +20 x(24) +5 x(25) +14 x(26) +8 x(27) +12 x(28) +3 x(29) +15 x(30) +20 x(31) +16 x(32) +4 x(33) +9 x(34) +20 x(35) +7 x(36) +14 x(37) +14 x(38) +14 x(39) +11 x(40) <= 104
c27:+10 x(1) +1 x(2) +11 x(3) +14 x(4) +8 x(5) +4 x(6) +1 x(7) +12 x(8) +4 x(9) +15 x(10) +8 x(11) +17 x(12) +5 x(13) +12 x(14) +12 x(15) +14 x(16) +6 x(17) +6 x(18) +12 x(19) +16 x(20) +15 x(21) +4 x(22) +15 x(23) +18 x(24) +6 x(25) +10 x(26) +3 x(27) +8 x(28) +2 x(29) +16 x(30) +2 x(31) +20 x(32) +19 x(33) +16 x(34) +8 x(35) +10 x(36) +5 x(37) +13 x(38) +9 x(39) +6 x(40) <= 189
c28:+17 x(1) +18 x(2) +14 x(3) +5 x(4) +6 x(5) +18 x(6) +20 x(7) +16 x(8) +4 x(9) +20 x(10) +8 x(11) +16 x(12) +1 x(13) +12 x(14) +10 x(15) +9 x(16) +18 x(17) +6 x(18) +3 x(19) +4 x(20) +11 x(21) +13 x(22) +4 x(23) +11 x(24) +11 x(25) +4 x(26) +20 x(27) +8 x(28) +17 x(29) +13 x(30) +8 x(31) +1 x(32) +12 x(33) +5 x(34) +20 x(35) +5 x(36) +17 x(37) +7 x(38) +17 x(39) +13 x(40) <= 176
c29:+19 x(1) +10 x(2) +10 x(3) +14 x(4) +6 x(5) +17 x(6) +4 x(7) +11 x(8) +14 x(9) +7 x(10) +14 x(11) +20 x(12) +20 x(13) +2 x(14) +8 x(15) +9 x(16) +18 x(17) +15 x(18) +20 x(19) +5 x(20) +15 x(21) +13 x(22) +1 x(23) +1 x(24) +11 x(25) +4 x(26) +9 x(27) +9 x(28) +7 x(29) +19 x(30) +1 x(31) +8 x(32) +11 x(33) +13 x(34) +1 x(35) +1 x(36) +7 x(37) +15 x(38) +14 x(39) +9 x(40) <= 181
c30:+11 x(1) +20 x(2) +5 x(3) +3 x(4) +10 x(5) +15 x(6) +19 x(7) +20 x(8) +8 x(9) +16 x(10) +8 x(11) +5 x(12) +17 x(13) +8 x(14) +8 x(15) +4 x(16) +12 x(17) +4 x(18) +17 x(19) +17 x(20) +14 x(21) +13 x(22) +11 x(23) +1 x(24) +10 x(25) +14 x(26) +9 x(27) +15 x(28) +14 x(29) +13 x(30) +12 x(31) +10 x(32) +5 x(33) +18 x(34) +16 x(35) +16 x(36) +10 x(37) +4 x(38) +11 x(39) +11 x(40) <= 144
c31:+17 x(1) +12 x(2) +5 x(3) +12 x(4) +2 x(5) +10 x(6) +5 x(7) +3 x(8) +19 x(9) +14 x(10) +4 x(11) +7 x(12) +12 x(13) +8 x(14) +8 x(15) +11 x(16) +10 x(17) +12 x(18) +19 x(19) +10 x(20) +13 x(21) +20 x(22) +1 x(23) +2 x(24) +19 x(25) +15 x(26) +16 x(27) +8 x(28) +3 x(29) +15 x(30) +12 x(31) +4 x(32) +20 x(33) +13 x(34) +9 x(35) +8 x(36) +16 x(37) +16 x(38) +8 x(39) +4 x(40) <= 107
c32:+12 x(1) +18 x(2) +18 x(3) +16 x(4) +2 x(5) +9 x(6) +2 x(7) +7 x(8) +10 x(9) +3 x(10) +2 x(11) +16 x(12) +8 x(13) +5 x(14) +6 x(15) +4 x(16) +18 x(17) +5 x(18) +14 x(19) +20 x(20) +2 x(21) +8 x(22) +10 x(23) +16 x(24) +15 x(25) +11 x(26) +9 x(27) +13 x(28) +12 x(29) +15 x(30) +1 x(31) +8 x(32) +8 x(33) +19 x(34) +13 x(35) +1 x(36) +15 x(37) +2 x(38) +14 x(39) +15 x(40) <= 115
c33:+16 x(1) +5 x(2) +7 x(3) +12 x(4) +17 x(5) +18 x(6) +14 x(7) +8 x(8) +9 x(9) +15 x(10) +5 x(11) +16 x(12) +14 x(13) +3 x(14) +20 x(15) +15 x(16) +7 x(17) +19 x(18) +7 x(19) +4 x(20) +8 x(21) +6 x(22) +5 x(23) +12 x(24) +18 x(25) +11 x(26) +12 x(27) +18 x(28) +3 x(29) +14 x(30) +12 x(31) +18 x(32) +10 x(33) +20 x(34) +7 x(35) +15 x(36) +13 x(37) +20 x(38) +2 x(39) +5 x(40) <= 124
c34:+7 x(1) +3 x(2) +6 x(3) +14 x(4) +2 x(5) +4 x(6) +2 x(7) +10 x(8) +4 x(9) +18 x(10) +19 x(11) +20 x(12) +20 x(13) +3 x(14) +14 x(15) +15 x(16) +5 x(17) +12 x(18) +15 x(19) +20 x(20) +9 x(21) +10 x(22) +10 x(23) +15 x(24) +17 x(25) +9 x(26) +14 x(27) +3 x(28) +5 x(29) +19 x(30) +8 x(31) +2 x(32) +17 x(33) +4 x(34) +19 x(35) +5 x(36) +5 x(37) +13 x(38) +1 x(39) +3 x(40) <= 108
c35:+3 x(1) +4 x(2) +18 x(3) +9 x(4) +6 x(5) +19 x(6) +2 x(7) +5 x(8) +7 x(9) +1 x(10) +20 x(11) +12 x(12) +15 x(13) +6 x(14) +11 x(15) +15 x(16) +2 x(17) +18 x(18) +6 x(19) +8 x(20) +14 x(21) +3 x(22) +14 x(23) +5 x(24) +9 x(25) +12 x(26) +1 x(27) +4 x(28) +9 x(29) +20 x(30) +1 x(31) +2 x(32) +16 x(33) +1 x(34) +5 x(35) +14 x(36) +15 x(37) +18 x(38) +18 x(39) +18 x(40) <= 186
c36:+14 x(1) +2 x(2) +3 x(3) +6 x(4) +16 x(5) +17 x(6) +14 x(7) +7 x(8) +9 x(9) +3 x(10) +10 x(11) +13 x(12) +3 x(13) +6 x(14) +4 x(15) +15 x(16) +3 x(17) +20 x(18) +13 x(19) +9 x(20) +9 x(21) +8 x(22) +1 x(23) +1 x(24) +5 x(25) +15 x(26) +9 x(27) +20 x(28) +15 x(29) +7 x(30) +20 x(31) +5 x(32) +9 x(33) +19 x(34) +8 x(35) +5 x(36) +7 x(37) +4 x(38) +14 x(39) +17 x(40) <= 115
c37:+15 x(1) +5 x(2) +14 x(3) +20 x(4) +10 x(5) +14 x(6) +1 x(7) +5 x(8) +3 x(9) +8 x(10) +3 x(11) +8 x(12) +9 x(13) +19 x(14) +3 x(15) +14 x(16) +12 x(17) +19 x(18) +6 x(19) +8 x(20) +12 x(21) +16 x(22) +18 x(23) +3 x(24) +2 x(25) +6 x(26) +20 x(27) +20 x(28) +18 x(29) +2 x(30) +3 x(31) +13 x(32) +13 x(33) +3 x(34) +7 x(35) +6 x(36) +7 x(37) +20 x(38) +13 x(39) +18 x(40) <= 162
c38:+8 x(1) +18 x(2) +7 x(3) +20 x(4) +19 x(5) +10 x(6) +4 x(7) +1 x(8) +20 x(9) +19 x(10) +11 x(11) +7 x(12) +14 x(13) +4 x(14) +18 x(15) +18 x(16) +19 x(17) +10 x(18) +11 x(19) +3 x(20) +13 x(21) +7 x(22) +1 x(23) +13 x(24) +6 x(25) +16 x(26) +12 x(27) +6 x(28) +17 x(29) +17 x(30) +12 x(31) +6 x(32) +20 x(33) +2 x(34) +1 x(35) +3 x(36) +3 x(37) +5 x(38) +9 x(39) +2 x(40) <= 153
c39:+7 x(1) +16 x(2) +7 x(3) +15 x(4) +12 x(5) +18 x(6) +6 x(7) +1 x(8) +9 x(9) +20 x(10) +20 x(11) +12 x(12) +7 x(13) +11 x(14) +8 x(15) +10 x(16) +16 x(17) +3 x(18) +15 x(19) +17 x(20) +9 x(21) +15 x(22) +13 x(23) +1 x(24) +9 x(25) +2 x(26) +19 x(27) +6 x(28) +5 x(29) +14 x(30) +18 x(31) +15 x(32) +14 x(33) +15 x(34) +13 x(35) +7 x(36) +1 x(37) +5 x(38) +11 x(39) +15 x(40) <= 119
c40:+2 x(1) +19 x(2) +17 x(3) +15 x(4) +9 x(5) +20 x(6) +7 x(7) +16 x(8) +17 x(9) +4 x(10) +16 x(11) +11 x(12) +19 x(13) +3 x(14) +10 x(15) +7 x(16) +15 x(17) +2 x(18) +15 x(19) +4 x(20) +17 x(21) +13 x(22) +11 x(23) +19 x(24) +10 x(25) +10 x(26) +19 x(27) +17 x(28) +7 x(29) +4 x(30) +14 x(31) +7 x(32) +6 x(33) +4 x(34) +17 x(35) +16 x(36) +19 x(37) +9 x(38) +4 x(39) +4 x(40) <= 176
obj2:-13 x(1) +10 x(2) -8 x(3) +10 x(4) +14 x(5) -16 x(6) +4 x(7) +9 x(8) +3 x(9) -11 x(10) +17 x(11) +18 x(12) +1 x(13) +8 x(14) +12 x(15) -12 x(16) -16 x(17) +5 x(18) -20 x(19) -19 x(20) -16 x(21) +13 x(22) -5 x(23) -11 x(24) -5 x(25) -13 x(26) +11 x(27) -7 x(28) -8 x(29) +9 x(30) +3 x(31) +11 x(32) -6 x(33) -13 x(34) +3 x(35) -1 x(36) -3 x(37) -7 x(38) +19 x(39) -10 x(40) <= 0
Binaries
x(1) x(2) x(3) x(4) x(5) x(6) x(7) x(8) x(9) x(10) x(11) x(12) x(13) x(14) x(15) x(16) x(17) x(18) x(19) x(20) x(21) x(22) x(23) x(24) x(25) x(26) x(27) x(28) x(29) x(30) x(31) x(32) x(33) x(34) x(35) x(36) x(37) x(38) x(39) x(40)
End
